rows = 16;
cols = 16;
fixed = [(5,1,nw),(1,4,sw),(2,2,ns),(3,5,ns),(4,4,ne),(4,6,ns),(4,14,sw),(5,13,nw),(7,7,ew),(7,11,nw),(7,15,ew),(8,9,se),(13,12,sw),(16,14,ns)];
row_counts = [5,4,5,8,5,5,9,6,4,4,1,3,4,6,3,1];
col_counts = [2,4,3,4,6,7,1,4,6,6,5,7,5,9,2,2];
